NAME: random-77-13107
TYPE: TSP
COMMENT: size=77 seed=13107
DIMENSION: 156
EDGE_WEIGHT_TYPE: EUC_2D
NODE_COORD_SECTION
+0 349 215
-0 349 215
+1 156 861
-1 656 587
+2 520 466
-2 258 526
+3 167 403
-3 709 347
+4 977 303
-4 705 712
+5 684 436
-5 670 634
+6 690 649
-6 958 956
+7 868 915
-7 22 852
+8 751 135
-8 61 337
+9 476 585
-9 70 11
+10 130 838
-10 314 474
+11 162 771
-11 530 772
+12 380 359
-12 345 504
+13 704 867
-13 400 676
+14 996 17
-14 58 550
+15 775 298
-15 494 461
+16 350 593
-16 803 373
+17 362 829
-17 272 969
+18 688 272
-18 434 809
+19 290 920
-19 768 118
+20 355 37
-20 374 726
+21 459 468
-21 332 199
+22 204 924
-22 884 103
+23 835 5
-23 155 626
+24 165 296
-24 603 140
+25 433 575
-25 889 557
+26 601 982
-26 440 328
+27 223 877
-27 76 588
+28 319 647
-28 662 594
+29 376 857
-29 127 361
+30 596 46
-30 325 646
+31 521 535
-31 520 542
+32 605 767
-32 419 793
+33 184 454
-33 837 440
+34 515 533
-34 485 353
+35 232 183
-35 983 272
+36 376 551
-36 354 265
+37 157 548
-37 950 227
+38 968 287
-38 530 52
+39 903 175
-39 726 807
+40 705 274
-40 997 782
+41 429 812
-41 810 241
+42 716 219
-42 989 782
+43 265 91
-43 951 294
+44 398 823
-44 853 680
+45 288 803
-45 610 156
+46 402 8
-46 243 984
+47 795 839
-47 536 319
+48 402 300
-48 693 612
+49 51 606
-49 227 841
+50 698 224
-50 640 49
+51 465 781
-51 569 457
+52 898 857
-52 498 146
+53 26 562
-53 563 364
+54 191 119
-54 940 125
+55 234 869
-55 881 494
+56 619 997
-56 621 884
+57 587 149
-57 501 665
+58 595 160
-58 191 774
+59 421 243
-59 365 268
+60 969 24
-60 316 58
+61 499 230
-61 867 145
+62 482 951
-62 779 149
+63 464 828
-63 256 518
+64 306 977
-64 387 84
+65 556 858
-65 330 323
+66 992 464
-66 884 514
+67 745 203
-67 6 82
+68 877 776
-68 764 745
+69 582 50
-69 411 444
+70 758 328
-70 720 390
+71 822 399
-71 200 909
+72 27 47
-72 884 454
+73 815 291
-73 362 145
+74 586 61
-74 701 33
+75 796 372
-75 985 768
+76 667 28
-76 765 329
+77 428 353
-77 820 166
PRECEDENCE_SECTION
+0 -0
+1 -1
+2 -2
+3 -3
+4 -4
+5 -5
+6 -6
+7 -7
+8 -8
+9 -9
+10 -10
+11 -11
+12 -12
+13 -13
+14 -14
+15 -15
+16 -16
+17 -17
+18 -18
+19 -19
+20 -20
+21 -21
+22 -22
+23 -23
+24 -24
+25 -25
+26 -26
+27 -27
+28 -28
+29 -29
+30 -30
+31 -31
+32 -32
+33 -33
+34 -34
+35 -35
+36 -36
+37 -37
+38 -38
+39 -39
+40 -40
+41 -41
+42 -42
+43 -43
+44 -44
+45 -45
+46 -46
+47 -47
+48 -48
+49 -49
+50 -50
+51 -51
+52 -52
+53 -53
+54 -54
+55 -55
+56 -56
+57 -57
+58 -58
+59 -59
+60 -60
+61 -61
+62 -62
+63 -63
+64 -64
+65 -65
+66 -66
+67 -67
+68 -68
+69 -69
+70 -70
+71 -71
+72 -72
+73 -73
+74 -74
+75 -75
+76 -76
+77 -77
EOF
